
******************************************************************************
This program contains Ipopt, a library for large-scale nonlinear optimization.
 Ipopt is released as open source code under the Eclipse Public License (EPL).
         For more information visit http://projects.coin-or.org/Ipopt

This version of Ipopt was compiled from source code available at
    https://github.com/IDAES/Ipopt as part of the Institute for the Design of
    Advanced Energy Systems Process Systems Engineering Framework (IDAES PSE
    Framework) Copyright (c) 2018-2019. See https://github.com/IDAES/idaes-pse.

This version of Ipopt was compiled using HSL, a collection of Fortran codes
    for large-scale scientific computation.  All technical papers, sales and
    publicity material resulting from use of the HSL codes within IPOPT must
    contain the following acknowledgement:
        HSL, a collection of Fortran codes for large-scale scientific
        computation. See http://www.hsl.rl.ac.uk.
******************************************************************************

This is Ipopt version 3.13.2, running with linear solver ma27.

Number of nonzeros in equality constraint Jacobian...:      928
Number of nonzeros in inequality constraint Jacobian.:        0
Number of nonzeros in Lagrangian Hessian.............:      806

Total number of variables............................:      403
                     variables with only lower bounds:      124
                variables with lower and upper bounds:      217
                     variables with only upper bounds:        0
Total number of equality constraints.................:      402
Total number of inequality constraints...............:        0
        inequality constraints with only lower bounds:        0
   inequality constraints with lower and upper bounds:        0
        inequality constraints with only upper bounds:        0

iter    objective    inf_pr   inf_du lg(mu)  ||d||  lg(rg) alpha_du alpha_pr  ls
   0  0.0000000e+00 6.87e-01 1.26e-13  -1.0 0.00e+00    -  0.00e+00 0.00e+00   0
   1  4.0001102e-02 6.84e-01 3.35e+03  -1.0 1.69e+07    -  1.42e-02 9.79e-04f  7
   2  1.0289537e-01 6.83e-01 4.36e+03  -1.0 1.89e+07    -  1.35e-02 5.92e-04h  8
   3  1.1499832e-01 6.83e-01 4.38e+03  -1.0 2.22e+07    -  1.24e-02 8.78e-05h 11
   4  1.6756557e-01 6.83e-01 4.59e+03  -1.0 2.61e+07    -  1.14e-02 3.10e-04h  9
   5  1.4510657e+02 7.93e-01 5.99e+06  -1.0 2.68e+07    -  2.20e-02 3.88e-02h  2
   6  1.5526860e+02 7.92e-01 5.98e+06  -1.0 3.76e+07    -  3.16e-02 9.98e-04h  6
   7  2.5599944e+02 8.07e-01 6.06e+06  -1.0 4.09e+07    -  2.93e-02 7.31e-03h  3
   8  7.5917996e+02 8.29e-01 6.91e+06  -1.0 4.28e+07    -  3.34e-02 2.24e-02h  1
   9  7.6788757e+02 8.29e-01 6.91e+06  -1.0 4.62e+07    -  4.38e-02 2.61e-04h  1
iter    objective    inf_pr   inf_du lg(mu)  ||d||  lg(rg) alpha_du alpha_pr  ls
  10r 7.6788757e+02 8.29e-01 1.00e+03  -0.1 0.00e+00    -  0.00e+00 3.49e-07R  4
  11r 7.6789253e+02 8.55e-01 9.97e+02  -0.1 4.18e+03    -  3.18e-03 6.40e-03f  1
  12r 7.6789905e+02 8.78e-01 9.84e+02  -0.1 3.78e+03    -  1.45e-02 9.09e-03f  1
  13r 7.6790450e+02 9.03e-01 9.76e+02  -0.1 2.91e+03    -  3.22e-02 7.95e-03f  1
  14r 7.6790700e+02 9.08e-01 9.67e+02  -0.1 3.72e+03    -  2.43e-02 8.91e-03f  1
  15r 7.6792525e+02 2.35e+00 9.47e+02  -0.1 2.03e+03    -  1.79e-03 2.83e-02f  1
  16r 7.6792638e+02 2.35e+00 9.37e+02  -0.1 2.34e+03    -  3.27e-02 2.76e-03f  1
  17r 7.6793146e+02 2.31e+00 9.23e+02  -0.1 2.90e+03    -  5.86e-04 1.52e-02f  1
  18r 7.6793169e+02 2.31e+00 9.22e+02  -0.1 2.66e+03    -  2.31e-02 6.72e-04f  1
  19r 7.6793825e+02 2.27e+00 9.11e+02  -0.1 1.92e+03    -  3.93e-03 1.52e-02f  1
iter    objective    inf_pr   inf_du lg(mu)  ||d||  lg(rg) alpha_du alpha_pr  ls
  20r 7.6794536e+02 2.22e+00 8.87e+02  -0.1 1.89e+03    -  3.32e-02 2.30e-02f  1
  21r 7.6794687e+02 2.20e+00 8.81e+02  -0.1 1.63e+03    -  3.90e-04 8.90e-03f  1
  22r 7.6794693e+02 2.20e+00 8.78e+02  -0.1 9.25e+02    -  4.85e-02 1.28e-03f  1
  23r 7.6794801e+02 2.11e+00 8.43e+02  -0.1 7.00e+02    -  6.60e-02 4.04e-02f  1
  24r 7.6795008e+02 1.86e+00 7.59e+02  -0.1 6.91e+02    -  5.56e-02 1.20e-01f  1
  25r 7.6795015e+02 1.83e+00 7.51e+02  -0.1 6.32e+02    -  1.10e-02 1.44e-02f  1
  26r 7.6795077e+02 1.53e+00 6.16e+02  -0.1 6.26e+02    -  5.13e-01 1.66e-01f  1
  27r 7.6795114e+02 9.08e-01 3.66e+02  -0.1 6.24e+02    -  1.52e-01 4.05e-01f  1
  28r 7.6795114e+02 7.54e-01 3.06e+02  -0.1 9.08e-01   2.0 4.15e-01 1.69e-01f  1
  29r 7.6795114e+02 6.51e-01 1.90e+02  -0.1 7.54e-01   2.4 4.23e-01 4.33e-01f  1
iter    objective    inf_pr   inf_du lg(mu)  ||d||  lg(rg) alpha_du alpha_pr  ls
  30r 7.6795114e+02 6.51e-01 9.99e+02  -0.2 0.00e+00    -  0.00e+00 3.09e-07R  5
  31r 7.6795119e+02 6.51e-01 9.98e+02  -0.2 6.95e+02    -  1.83e-01 1.57e-03f  1
  32r 7.6795827e+02 6.85e+00 8.19e+02  -0.2 6.17e+02    -  1.04e-01 1.80e-01f  1
  33r 7.6795827e+02 6.23e+00 7.99e+02  -0.2 1.90e+01   0.0 6.80e-01 8.98e-02f  1
  34r 7.6795827e+02 5.68e+00 7.98e+02  -0.2 6.23e+00  -0.5 2.77e-01 8.86e-02f  1
  35r 7.6795827e+02 3.91e+00 5.79e+02  -0.2 1.18e+01  -1.0 2.67e-01 3.12e-01f  1
  36r 7.6795827e+02 3.72e+00 5.43e+02  -0.2 2.82e+01  -1.4 4.56e-01 4.72e-02f  1
  37r 7.6795827e+02 1.31e+00 2.25e+02  -0.2 7.14e+00  -1.0 4.45e-01 6.48e-01f  1
  38r 7.6795827e+02 1.24e+00 2.53e+02  -0.2 5.62e+01  -1.5 1.33e-01 5.16e-02f  1
  39r 7.6795827e+02 7.15e-01 2.21e+02  -0.2 8.31e+00  -1.1 9.35e-01 4.25e-01f  1
iter    objective    inf_pr   inf_du lg(mu)  ||d||  lg(rg) alpha_du alpha_pr  ls
  40r 7.6795827e+02 6.27e-01 1.79e+02  -0.2 1.24e+01   0.3 5.05e-01 3.67e-01f  1
  41r 7.6795827e+02 6.27e-01 6.29e+02  -0.2 2.23e+00  -0.2 9.90e-01 1.28e-01f  1
  42r 7.6795827e+02 6.26e-01 8.33e+01  -0.2 3.47e+00  -0.7 9.90e-01 1.00e+00f  1
  43r 7.6795827e+02 6.25e-01 4.39e+02  -0.2 2.78e+01  -1.2 2.64e-01 5.32e-01f  1
  44r 7.6795827e+02 6.25e-01 4.16e+02  -0.2 5.58e+00  -0.7 7.35e-01 2.39e-01f  1
  45r 7.6795827e+02 6.25e-01 1.65e+02  -0.2 5.80e-02   2.4 1.00e+00 5.98e-01f  1
  46r 7.6795827e+02 6.25e-01 1.06e+00  -0.2 1.26e-02   1.9 1.00e+00 1.00e+00f  1
  47r 7.6795827e+02 6.38e-01 4.19e+01  -2.4 5.10e-02   1.4 8.32e-01 7.33e-01f  1
  48r 7.6795827e+02 6.44e-01 1.81e+02  -2.4 1.09e-01   1.0 8.66e-01 5.28e-01f  1
  49r 7.6795827e+02 6.50e-01 3.77e+01  -2.4 3.27e-01   0.5 1.00e+00 8.46e-01f  1
iter    objective    inf_pr   inf_du lg(mu)  ||d||  lg(rg) alpha_du alpha_pr  ls
  50r 7.6795827e+02 6.51e-01 1.37e+02  -2.4 9.78e-01   0.0 1.00e+00 4.40e-01f  1
  51r 7.6795827e+02 6.52e-01 1.22e+02  -2.4 2.90e+00  -0.5 1.00e+00 3.41e-01f  1
  52r 7.6795827e+02 6.52e-01 2.45e+02  -2.4 8.37e+00  -0.9 3.36e-01 2.89e-02f  1
  53r 7.6795827e+02 6.52e-01 7.68e+02  -2.4 2.44e+01  -1.4 1.00e+00 5.13e-02f  1
  54r 7.6795827e+02 6.52e-01 1.43e+03  -2.4 9.25e+00  -1.0 9.19e-01 2.53e-01f  1
  55r 7.6795827e+02 6.52e-01 1.21e+03  -2.4 3.28e+01  -1.5 5.87e-01 2.43e-02f  1
  56r 7.6795827e+02 6.52e-01 1.34e+03  -2.4 7.97e+00  -1.0 1.50e-01 2.72e-02f  1
  57r 7.6795827e+02 6.52e-01 1.32e+03  -2.4 6.33e+01  -1.5 4.39e-02 3.39e-03f  1
  58r 7.6795827e+02 6.52e-01 2.86e+02  -2.4 9.71e+00  -1.1 2.95e-02 6.26e-01f  1
  59r 7.6795827e+02 6.52e-01 3.38e+02  -2.4 3.29e-02   2.9 3.76e-01 1.00e+00f  1
iter    objective    inf_pr   inf_du lg(mu)  ||d||  lg(rg) alpha_du alpha_pr  ls
  60r 7.6795827e+02 6.52e-01 2.85e+02  -2.4 2.69e-01   2.5 3.08e-01 8.79e-03f  1
  61r 7.6795827e+02 6.53e-01 7.64e-01  -2.4 7.62e-03   2.0 1.00e+00 1.00e+00f  1
  62r 7.6795827e+02 6.53e-01 7.28e-01  -2.4 2.22e-02   1.5 1.00e+00 1.00e+00f  1
  63r 7.6795827e+02 6.53e-01 7.28e-01  -2.4 6.65e-02   1.0 1.00e+00 1.00e+00f  1
  64r 7.6795827e+02 6.53e-01 7.28e-01  -2.4 2.00e-01   0.6 1.00e+00 1.00e+00f  1
  65r 7.6795827e+02 6.52e-01 7.28e-01  -2.4 5.99e-01   0.1 1.00e+00 1.00e+00f  1
  66r 7.6795827e+02 6.52e-01 1.53e+00  -2.4 1.79e+00  -0.4 1.00e+00 9.64e-01f  1
  67r 7.6795827e+02 6.51e-01 5.64e+00  -2.4 5.66e+00  -0.9 1.00e+00 1.00e+00f  1
  68r 7.6795827e+02 6.51e-01 4.53e+01  -2.4 6.06e+01  -1.3 4.85e-02 3.20e-02f  1
  69r 7.6795827e+02 6.51e-01 1.49e+02  -2.4 6.84e+00  -0.9 1.00e+00 6.80e-03f  1
iter    objective    inf_pr   inf_du lg(mu)  ||d||  lg(rg) alpha_du alpha_pr  ls
  70r 7.6795827e+02 6.51e-01 9.55e+02  -2.4 1.79e+01  -1.4 1.00e+00 7.13e-02f  1
  71r 7.6795827e+02 6.50e-01 1.20e+02  -2.4 6.76e+00  -1.0 1.00e+00 8.82e-01f  1
  72r 7.6795827e+02 6.48e-01 3.17e+02  -2.4 2.00e+01  -1.4 1.00e+00 3.30e-01f  1
  73r 7.6795827e+02 6.48e-01 3.55e+02  -2.4 5.83e+00  -1.0 1.00e+00 5.52e-03f  1
  74r 7.6795827e+02 6.48e-01 1.75e+02  -2.4 3.84e+01  -1.5 3.37e-01 5.05e-01f  1
  75r 7.6795827e+02 6.48e-01 1.76e+02  -2.4 2.11e+01  -1.1 1.04e-03 2.22e-03f  1
  76r 7.6795809e+02 6.48e-01 3.12e+02  -2.4 2.28e+04    -  9.19e-02 5.25e-05f  1
  77r 7.6798117e+02 6.48e-01 2.69e+02  -2.4 6.59e+03    -  1.38e-01 2.30e-01f  1
  78r 7.6798127e+02 6.48e-01 2.69e+02  -2.4 5.88e+03    -  1.69e-03 6.86e-03f  1
  79r 7.6798177e+02 6.48e-01 1.58e+03  -2.4 5.86e+03    -  8.84e-01 5.49e-03f  1
iter    objective    inf_pr   inf_du lg(mu)  ||d||  lg(rg) alpha_du alpha_pr  ls
  80r 7.6803030e+02 6.42e-01 5.42e+02  -2.4 5.84e+03    -  1.02e-01 5.40e-01f  1
  81r 7.6803030e+02 6.37e-01 4.07e+02  -2.4 2.07e+00  -1.6 2.73e-01 2.89e-01h  1
  82r 7.6803030e+02 6.31e-01 4.69e+02  -2.4 7.99e-01  -1.1 3.46e-01 9.77e-01h  1
  83r 7.6803030e+02 5.87e-01 3.24e+02  -2.4 1.16e+01  -1.6 1.93e-01 4.53e-01f  1
  84r 7.6803030e+02 5.53e-01 2.22e+00  -2.4 3.81e+00  -1.2 1.00e+00 1.00e+00f  1
  85  7.7941024e+02 5.53e-01 4.73e+03  -1.0 7.05e+07    -  2.11e-02 3.08e-04h  7
  86  7.9297998e+02 5.53e-01 4.93e+03  -1.0 8.03e+07    -  1.88e-02 2.83e-04h  7
  87  8.0750310e+02 5.53e-01 5.63e+03  -1.0 8.53e+07    -  1.80e-02 2.70e-04h  7
  88  8.3862304e+02 5.53e-01 5.43e+03  -1.0 9.05e+07    -  1.73e-02 5.14e-04h  6
  89  8.6977779e+02 5.52e-01 5.01e+03  -1.0 9.09e+07    -  1.98e-02 5.00e-04h  6
iter    objective    inf_pr   inf_du lg(mu)  ||d||  lg(rg) alpha_du alpha_pr  ls
  90  9.0077723e+02 5.52e-01 4.87e+03  -1.0 9.09e+07    -  2.22e-02 4.88e-04h  6
  91  9.6295903e+02 5.52e-01 5.33e+03  -1.0 9.08e+07    -  2.23e-02 9.51e-04h  5
  92  1.0241054e+03 5.51e-01 5.91e+03  -1.0 9.04e+07    -  2.27e-02 9.03e-04h  5
  93  1.0840070e+03 5.51e-01 6.47e+03  -1.0 8.98e+07    -  2.92e-02 8.57e-04h  5
  94  1.1424915e+03 5.50e-01 6.77e+03  -1.0 8.92e+07    -  2.94e-02 8.13e-04h  5
  95  2.2314121e+03 5.38e-01 6.39e+04  -1.0 8.85e+07    -  3.17e-02 1.23e-02w  1
  96  2.2455817e+03 5.38e-01 6.39e+04  -1.0 6.87e+07    -  4.94e-02 1.48e-04w  1
  97  2.2456730e+03 5.38e-01 1.20e+08  -1.0 2.07e+08    -  3.57e-03 1.84e-06w  1
  98  1.1994188e+03 5.50e-01 6.94e+03  -1.0 1.22e+09    -  3.17e-02 7.71e-04h  4
  99  1.2546784e+03 5.49e-01 7.05e+03  -1.0 8.78e+07    -  3.49e-02 7.30e-04h  5
iter    objective    inf_pr   inf_du lg(mu)  ||d||  lg(rg) alpha_du alpha_pr  ls
 100  1.3081855e+03 5.49e-01 7.13e+03  -1.0 8.71e+07    -  3.81e-02 6.92e-04h  5
 101  1.4126403e+03 5.48e-01 2.36e+04  -1.0 8.63e+07    -  4.61e-02 1.31e-03h  4
 102  1.5090924e+03 5.48e-01 1.16e+05  -1.0 8.49e+07    -  4.70e-02 1.17e-03h  4
 103  1.5975207e+03 5.47e-01 7.51e+05  -1.0 8.35e+07    -  5.67e-02 1.04e-03h  4
 104  1.6781112e+03 5.46e-01 6.53e+06  -1.0 8.23e+07    -  5.73e-02 9.24e-04h  4
 105  1.7511433e+03 5.46e-01 5.06e+07  -1.0 8.12e+07    -  6.11e-02 8.20e-04h  4
 106  1.8158487e+03 5.46e-01 1.98e+08  -1.0 7.93e+07    -  9.96e-02 7.35e-04h  4
 107  1.8449404e+03 5.45e-01 2.40e+08  -1.0 7.88e+07    -  9.42e-02 3.24e-04h  5
 108  2.3196900e+03 5.41e-01 1.14e+10  -1.0 7.91e+07    -  1.30e-01 4.85e-03w  1
 109  2.3142226e+03 1.50e+00 2.30e+11  -1.0 3.03e+08    -  1.53e-02 1.14e-04w  1
iter    objective    inf_pr   inf_du lg(mu)  ||d||  lg(rg) alpha_du alpha_pr  ls
 110  1.8930524e+03 3.25e+01 2.26e+11  -1.0 2.88e+08    -  1.75e-02 4.24e-03w  1
 111  1.9582510e+03 5.45e-01 9.15e+08  -1.0 3.54e+08    -  1.30e-01 1.21e-03h  2
 112  2.1379497e+03 5.43e-01 3.63e+09  -1.0 7.78e+07    -  5.92e-02 1.85e-03h  2
 113  2.3315268e+03 5.42e-01 1.46e+10  -1.0 7.57e+07    -  1.27e-01 1.92e-03h  1
 114r 2.3315268e+03 5.42e-01 1.00e+03  -0.3 0.00e+00    -  0.00e+00 3.10e-07R  7
 115r 2.3315282e+03 5.42e-01 9.59e+02  -0.3 1.30e+03    -  5.50e-01 4.00e-02f  1
 116r 2.3315283e+03 5.42e-01 9.50e+02  -0.3 1.27e+03    -  4.58e-02 8.98e-03f  1
 117r 2.3315333e+03 5.40e-01 7.22e+02  -0.3 1.26e+03    -  9.25e-01 2.40e-01f  1
 118r 2.3315614e+03 4.89e-01 3.53e+01  -0.3 9.37e+02    -  9.76e-01 1.00e+00f  1
 119r 2.3315753e+03 5.11e-01 6.66e+01  -0.3 4.45e+01    -  3.89e-01 1.00e+00h  1
iter    objective    inf_pr   inf_du lg(mu)  ||d||  lg(rg) alpha_du alpha_pr  ls
 120r 2.3315753e+03 3.33e-01 2.33e+02  -0.3 6.84e+01  -2.0 2.84e-01 5.24e-01f  1
 121  2.5900185e+03 3.32e-01 1.68e+05  -1.0 6.50e+07    -  4.30e-02 3.49e-03h  3
 122  2.8341140e+03 3.31e-01 1.90e+05  -1.0 6.76e+07    -  3.73e-02 2.57e-03h  3
 123  3.0387140e+03 3.31e-01 1.91e+05  -1.0 6.71e+07    -  3.57e-02 1.96e-03h  3
 124  3.1209540e+03 3.30e-01 1.91e+05  -1.0 6.70e+07    -  3.54e-02 7.47e-04h  4
 125  3.2721542e+03 3.30e-01 1.91e+05  -1.0 7.05e+07    -  3.47e-02 1.30e-03h  3
 126  3.7616206e+03 3.29e-01 6.14e+05  -1.0 7.24e+07    -  4.03e-02 3.96e-03h  1
 127  3.7668539e+03 3.29e-01 5.91e+07  -1.0 7.17e+07    -  4.38e-02 4.18e-05h  1
 128r 3.7668539e+03 3.29e-01 1.00e+03  -0.5 0.00e+00    -  0.00e+00 4.96e-07R  2
 129r 3.7668644e+03 3.29e-01 9.47e+02  -0.5 1.11e+03    -  9.36e-01 5.20e-02f  1
iter    objective    inf_pr   inf_du lg(mu)  ||d||  lg(rg) alpha_du alpha_pr  ls
 130r 3.7668644e+03 3.29e-01 7.61e+02  -0.5 3.05e+01   0.0 5.95e-02 1.97e-01f  1
 131r 3.7668657e+03 3.29e-01 7.53e+02  -0.5 1.63e+03    -  9.18e-01 9.68e-03f  1
 132r 3.7669927e+03 3.30e-01 4.63e+01  -0.5 1.62e+03    -  7.45e-01 1.00e+00f  1
 133r 3.7670063e+03 3.30e-01 2.17e+02  -0.5 9.13e+01    -  2.25e-02 1.00e+00f  1
 134r 3.7670063e+03 3.45e-01 1.19e+02  -0.5 1.81e+00  -0.5 6.07e-01 1.00e+00f  1
 135r 3.7670063e+03 4.33e-01 5.08e+01  -0.5 1.26e-01   2.7 9.90e-01 8.65e-01f  1
 136r 3.7670063e+03 4.59e-01 7.62e+01  -0.5 6.25e-02   3.1 8.93e-01 1.00e+00f  1
 137r 3.7670063e+03 4.69e-01 1.07e+02  -0.5 2.23e-01   2.6 9.91e-01 7.59e-02f  1
 138r 3.7669866e+03 4.71e-01 1.06e+02  -0.5 1.01e+03    -  4.53e-02 1.08e-01f  1
 139r 3.7669852e+03 4.71e-01 8.66e+02  -0.5 4.17e+02    -  1.00e+00 1.94e-02h  1
iter    objective    inf_pr   inf_du lg(mu)  ||d||  lg(rg) alpha_du alpha_pr  ls
 140r 3.7669171e+03 4.72e-01 4.64e+00  -0.5 3.77e+02    -  1.00e+00 1.00e+00f  1
 141r 3.7669175e+03 4.73e-01 1.71e+01  -1.2 4.79e+01    -  1.00e+00 9.48e-01f  1
 142r 3.7669864e+03 4.73e-01 5.13e-03  -1.2 1.69e+03    -  1.00e+00 1.00e+00f  1
 143r 3.7669861e+03 4.73e-01 3.92e+00  -4.2 4.99e+01    -  8.99e-01 9.31e-01f  1
 144r 3.7670878e+03 4.73e-01 2.23e+02  -4.2 2.93e+04    -  5.57e-01 2.63e-02f  1
 145r 3.7670878e+03 4.73e-01 2.65e+02  -4.2 3.17e+04    -  2.84e-02 6.30e-06f  1
 146r 3.7671543e+03 4.73e-01 1.11e+03  -4.2 3.92e+04    -  4.08e-01 2.18e-02f  1
 147r 3.7674500e+03 4.73e-01 9.91e+02  -4.2 4.88e+04    -  3.34e-04 9.59e-02f  1
 148r 3.7674881e+03 4.73e-01 1.32e+03  -4.2 3.47e+04    -  4.34e-01 1.19e-02f  1
 149r 3.7678214e+03 4.73e-01 1.38e+03  -4.2 2.80e+04    -  3.53e-01 9.94e-02f  1
iter    objective    inf_pr   inf_du lg(mu)  ||d||  lg(rg) alpha_du alpha_pr  ls
 150r 3.7680919e+03 4.73e-01 1.53e+03  -4.2 2.55e+04    -  5.53e-01 8.60e-02f  1
 151r 3.7680982e+03 4.73e-01 1.49e+03  -4.2 1.60e+04    -  1.00e+00 2.06e-03f  1
 152r 3.7695922e+03 4.73e-01 7.54e+02  -4.2 1.56e+04    -  1.00e+00 4.88e-01f  1
 153r 3.7698052e+03 4.73e-01 6.78e+02  -4.2 8.11e+03    -  1.00e+00 1.34e-01f  1
 154r 3.7711733e+03 4.73e-01 7.36e+00  -4.2 7.40e+03    -  1.00e+00 9.89e-01f  1
 155r 3.7711891e+03 4.73e-01 9.60e-06  -4.2 1.83e+02    -  1.00e+00 1.00e+00h  1
 156r 3.7711891e+03 4.73e-01 4.61e-03  -6.3 4.12e+00    -  1.00e+00 1.00e+00f  1
 157r 3.7765556e+03 4.73e-01 2.92e+02  -6.3 2.86e+05    -  9.49e-01 2.28e-01f  1
 158r 3.7780045e+03 4.73e-01 3.13e+02  -6.3 2.43e+05    -  1.00e+00 7.01e-02f  1
 159r 3.7780046e+03 4.73e-01 9.70e+02  -6.3 2.32e+05    -  1.00e+00 2.29e-06f  1
iter    objective    inf_pr   inf_du lg(mu)  ||d||  lg(rg) alpha_du alpha_pr  ls
 160r 3.7787734e+03 4.73e-01 9.61e+02  -6.3 2.32e+05    -  1.00e+00 3.12e-02f  1
 161r 3.7795750e+03 4.73e-01 9.99e+02  -6.3 2.26e+05    -  1.00e+00 3.49e-02f  1
 162r 3.7798691e+03 4.73e-01 9.23e+02  -6.3 1.89e+05    -  1.00e+00 1.20e-02f  1
 163r 3.7846781e+03 4.73e-01 7.50e+02  -6.3 1.87e+05    -  1.00e+00 1.93e-01f  1
 164r 3.7846924e+03 4.73e-01 7.40e+02  -6.3 1.40e+05    -  1.00e+00 6.23e-04f  1
 165r 3.7857653e+03 4.73e-01 6.70e+02  -6.3 6.02e+04    -  1.00e+00 4.43e-02f  1
 166r 3.8075795e+03 4.72e-01 6.87e+01  -6.3 5.52e+04    -  1.00e+00 8.95e-01f  1
 167r 3.8103059e+03 4.72e-01 2.31e-03  -6.3 5.98e+03    -  1.00e+00 1.00e+00h  1
 168r 3.8103072e+03 4.72e-01 5.71e-08  -6.3 3.89e+00    -  1.00e+00 1.00e+00h  1
 169r 3.8103072e+03 4.72e-01 8.42e-04  -9.0 8.64e-03    -  1.00e+00 1.00e+00f  1
iter    objective    inf_pr   inf_du lg(mu)  ||d||  lg(rg) alpha_du alpha_pr  ls
 170r 3.1081490e+03 3.99e+01 2.00e+02  -9.0 9.34e+05    -  7.15e-01 1.00e+00f  1
 171r 3.1081490e+03 3.99e+01 1.69e+03  -9.0 4.69e+03   2.1 0.00e+00 3.94e-11R  4
 172r 3.1081490e+03 3.98e+01 1.68e+03  -9.0 2.26e+00   2.6 1.75e-02 3.08e-02f  1
 173r 3.1081490e+03 3.97e+01 2.29e+03  -9.0 5.02e+00   2.1 4.67e-11 4.34e-02f  1
 174r 3.1081490e+03 3.95e+01 4.16e+03  -9.0 1.50e+01   1.6 2.06e-03 2.13e-02f  1
 175r 3.1081490e+03 3.89e+01 4.93e+03  -9.0 4.39e+01   1.1 3.19e-08 2.18e-02f  1
 176r 3.1081490e+03 3.88e+01 4.92e+03  -9.0 1.21e+02   0.6 2.02e-03 2.16e-03f  1
 177r 3.1081490e+03 3.88e+01 4.92e+03  -9.0 2.93e+02   0.2 1.13e-07 1.70e-13f  4
 178r 3.1081490e+03 3.88e+01 4.92e+03  -9.0 1.19e+03  -0.3 4.94e-04 5.41e-08f  1
 179r 3.1081490e+03 3.87e+01 4.92e+03  -9.0 5.39e+01   1.0 3.15e-10 1.31e-03f  1
iter    objective    inf_pr   inf_du lg(mu)  ||d||  lg(rg) alpha_du alpha_pr  ls
 180r 3.1081490e+03 3.87e+01 4.92e+03  -9.0 1.45e+02   0.5 7.25e-04 5.43e-11f  1
 181r 3.1081490e+03 3.87e+01 4.92e+03  -9.0 3.36e+02   0.1 1.18e-04 2.31e-04f  1
 182r 3.1081490e+03 3.87e+01 4.92e+03  -9.0 1.64e+04  -0.4 1.02e-10 2.42e-12f  1
 183r 3.1081490e+03 3.86e+01 4.91e+03  -9.0 3.60e+02   0.0 3.18e-04 1.80e-03f  1
 184r 3.1081490e+03 3.85e+01 4.91e+03  -9.0 4.57e+04  -0.5 1.23e-08 6.92e-05f  1
 185r 3.1081490e+03 3.85e+01 4.91e+03  -9.0 3.43e+03  -0.9 6.88e-04 5.74e-13f  1
 186r 3.1081490e+03 3.84e+01 4.91e+03  -9.0 9.55e+03  -1.4 4.02e-05 5.37e-04f  1
 187r 3.1081490e+03 3.84e+01 4.91e+03  -9.0 2.38e+03  -1.0 1.11e-03 7.41e-11f  1
 188r 3.1081490e+03 3.75e+01 4.90e+03  -9.0 4.55e+03  -1.5 1.67e-04 8.19e-04f  1
 189r 3.1081490e+03 3.75e+01 4.90e+03  -9.0 2.06e+03  -1.0 8.94e-04 1.86e-12f  1
iter    objective    inf_pr   inf_du lg(mu)  ||d||  lg(rg) alpha_du alpha_pr  ls
 190r 3.1081490e+03 3.62e+01 4.90e+03  -9.0 2.36e+03  -1.5 1.18e-11 8.21e-04f  1
 191r 3.1081490e+03 3.59e+01 4.90e+03  -9.0 1.23e+03  -1.1 4.08e-04 2.03e-04f  1
 192r 3.1081490e+03 3.37e+01 4.89e+03  -9.0 2.47e+03  -1.6 2.82e-11 1.02e-03f  1
 193r 3.1081490e+03 2.87e+01 4.88e+03  -9.0 1.91e+03  -1.1 4.74e-04 2.61e-03f  1
 194r 3.1081490e+03 2.40e+01 4.87e+03  -9.0 3.92e+03  -1.6 1.21e-10 1.65e-03f  1
 195r 3.1081490e+03 2.06e+01 4.86e+03  -9.0 2.82e+03  -1.2 4.97e-04 2.52e-03f  1
 196r 3.1081490e+03 1.69e+01 4.85e+03  -9.0 4.61e+03  -1.7 1.14e-09 1.35e-03f  1
 197r 3.1081490e+03 1.55e+01 4.85e+03  -9.0 3.04e+03  -1.2 2.11e-03 5.90e-04f  1
 198r 3.1081490e+03 8.18e+00 4.84e+03  -9.0 4.28e+03  -1.7 2.12e-09 1.71e-03f  1
 199r 3.1081490e+03 6.81e+00 4.84e+03  -9.0 3.02e+03  -1.3 3.94e-03 4.53e-04f  1
iter    objective    inf_pr   inf_du lg(mu)  ||d||  lg(rg) alpha_du alpha_pr  ls
 200r 3.1081490e+03 1.10e+00 4.82e+03  -9.0 1.48e+03  -0.9 3.93e-11 3.86e-03f  1
 201r 3.1081490e+03 6.90e-01 4.81e+03  -9.0 8.79e+02  -1.3 3.60e-03 1.25e-03f  1
 202r 3.1081490e+03 6.88e-01 4.80e+03  -9.0 9.21e+01  -0.9 1.15e-10 3.77e-03f  1
 203r 3.1081490e+03 6.87e-01 4.76e+03  -9.0 1.91e+02  -1.4 8.30e-03 7.11e-03f  1
 204r 3.1081490e+03 6.82e-01 4.66e+03  -9.0 1.18e+02  -1.0 4.58e-11 2.19e-02f  1
 205r 3.1081490e+03 6.82e-01 4.61e+03  -9.0 2.15e+02  -1.4 5.59e-03 1.04e-02f  1
 206r 3.1081490e+03 6.80e-01 4.53e+03  -9.0 1.37e+02  -1.0 1.22e-10 1.62e-02f  1
 207r 3.1081490e+03 6.80e-01 4.50e+03  -9.0 2.33e+02  -1.5 8.81e-03 8.19e-03f  1
 208r 3.1081490e+03 6.75e-01 4.40e+03  -9.0 1.51e+02  -1.1 6.42e-11 2.08e-02f  1
 209r 3.1081490e+03 6.75e-01 4.37e+03  -9.0 2.41e+02  -1.6 1.40e-02 6.96e-03f  1
iter    objective    inf_pr   inf_du lg(mu)  ||d||  lg(rg) alpha_du alpha_pr  ls
 210r 3.1081490e+03 6.72e-01 4.30e+03  -9.0 1.51e+02  -1.1 3.81e-11 1.67e-02f  1
 211r 3.1081490e+03 6.70e-01 4.25e+03  -9.0 1.74e+02  -1.6 1.06e-02 1.15e-02f  1
 212r 3.1081490e+03 6.70e-01 4.21e+03  -9.0 2.34e+01  -1.2 9.77e-09 8.98e-03f  1
 213r 3.1081490e+03 6.70e-01 4.16e+03  -9.0 6.20e+01  -1.7 3.48e-03 1.28e-02f  1
 214r 3.1081490e+03 5.47e-01 4.28e+03  -9.0 1.67e+02  -1.2 1.20e-08 3.92e-02f  1
 215r 3.1081490e+03 5.44e-01 4.69e+03  -9.0 2.57e+02  -1.7 1.05e-03 6.84e-03f  1
 216r 3.1081490e+03 5.14e-01 7.58e+03  -9.0 1.83e+02  -1.3 9.66e-03 5.42e-02f  1
 217r 3.1081490e+03 5.07e-01 8.29e+03  -9.0 2.34e+02  -1.8 1.62e-07 1.31e-02f  1
 218r 3.1081490e+03 4.91e-01 9.78e+03  -9.0 1.57e+02  -1.3 3.88e-03 3.25e-02f  1
 219r 3.1081490e+03 4.90e-01 9.76e+03  -9.0 2.02e+02  -1.8 8.96e-08 2.13e-03f  1
iter    objective    inf_pr   inf_du lg(mu)  ||d||  lg(rg) alpha_du alpha_pr  ls
 220r 3.1081490e+03 4.84e-01 9.63e+03  -9.0 1.60e+01  -1.4 3.26e-02 1.27e-02f  1
 221r 3.1081490e+03 4.83e-01 9.62e+03  -9.0 6.85e+02  -1.9 2.73e-02 1.36e-03f  1
 222r 3.1081490e+03 4.72e-01 9.15e+03  -9.0 2.26e+01  -1.4 1.70e-09 4.85e-02f  1
 223r 3.1081490e+03 4.72e-01 9.15e+03  -9.0 7.73e+00  -1.0 1.22e-02 2.07e-04f  1
 224r 3.1081490e+03 4.71e-01 8.88e+03  -9.0 2.28e+01  -1.5 1.37e-10 2.97e-02f  1
 225r 3.1081490e+03 4.71e-01 8.88e+03  -9.0 6.41e+00  -1.1 5.35e-02 7.89e-06f  1
 226r 3.1081490e+03 4.71e-01 8.59e+03  -9.0 2.76e+01  -1.5 6.49e-11 3.21e-02f  1
 227r 3.1081490e+03 4.71e-01 8.38e+03  -9.0 7.26e+00  -1.1 1.43e-02 2.53e-02f  1
 228r 3.1081490e+03 4.71e-01 8.38e+03  -9.0 3.31e+01  -1.6 0.00e+00 4.70e-13R  9
 229r 3.1081490e+03 4.71e-01 8.38e+03  -9.0 1.96e+01  -1.2 5.67e-09 2.71e-10f  1
iter    objective    inf_pr   inf_du lg(mu)  ||d||  lg(rg) alpha_du alpha_pr  ls
 230r 3.1081490e+03 4.71e-01 8.22e+03  -9.0 4.17e+01  -1.6 1.45e-02 1.91e-02f  1
 231r 3.1081490e+03 4.71e-01 7.98e+03  -9.0 1.20e+01  -1.2 1.58e-09 2.88e-02f  1
 232r 3.1081490e+03 4.71e-01 7.70e+03  -9.0 5.20e+01  -1.7 1.94e-02 3.49e-02f  1
 233r 3.1081490e+03 4.71e-01 7.70e+03  -9.0 1.06e+01  -1.3 3.53e-08 4.17e-13h 11
 234r 3.1081490e+03 4.71e-01 7.70e+03  -9.0 5.34e+01  -1.7 4.78e-02 3.78e-08f  1
 235r 3.1081490e+03 4.71e-01 7.61e+03  -9.0 1.23e+01  -1.3 2.79e-09 1.24e-02f  1
 236r 3.1081490e+03 4.71e-01 7.30e+03  -9.0 6.81e+01  -1.8 6.41e-05 4.09e-02f  1
 237r 3.1081490e+03 4.71e-01 7.30e+03  -9.0 1.43e+01  -1.4 0.00e+00 7.40e-16R 20
 238r 3.1081490e+03 4.71e-01 7.30e+03  -9.0 8.91e+01  -1.8 3.90e-02 9.43e-13f  9
 239r 3.1081490e+03 4.71e-01 6.95e+03  -9.0 1.67e+01  -1.4 5.07e-10 4.80e-02f  1
iter    objective    inf_pr   inf_du lg(mu)  ||d||  lg(rg) alpha_du alpha_pr  ls
 240r 3.1081490e+03 4.71e-01 6.95e+03  -9.0 5.92e+01  -1.9 1.07e-01 8.15e-12h  9
 241r 3.1081490e+03 4.71e-01 6.90e+03  -9.0 9.87e+02  -2.4 1.30e-10 6.98e-03f  1
 242r 3.1081490e+03 4.71e-01 6.90e+03  -9.0 5.88e+01  -1.9 0.00e+00 3.01e-16R 22
 243r 3.1081490e+03 4.71e-01 6.90e+03  -9.0 4.09e+02  -2.4 1.77e-03 2.24e-13f  9
 244r 3.1081490e+03 4.71e-01 6.86e+03  -9.0 6.61e+01  -2.0 7.14e-03 5.46e-03f  1
 245r 3.1081490e+03 4.71e-01 6.86e+03  -9.0 6.59e+02  -2.5 6.93e-02 2.29e-13f  9
 246r 3.1081490e+03 4.71e-01 6.76e+03  -9.0 7.80e+01  -2.0 1.50e-10 1.44e-02f  1
In iteration 246, 1 Slack too small, adjusting variable bound
 247r 3.1081490e+03 4.71e-01 6.76e+03  -9.0 1.85e+03  -2.5 2.48e-02 6.63e-09f  1
 248r 3.1081490e+03 4.71e-01 6.76e+03  -9.0 9.46e+01  -2.1 9.82e-11 1.22e-04f  1
 249r 3.1081490e+03 4.71e-01 6.76e+03  -9.0 2.69e+01  -1.7 5.43e-02 2.89e-04f  1
iter    objective    inf_pr   inf_du lg(mu)  ||d||  lg(rg) alpha_du alpha_pr  ls
 250r 3.1081490e+03 4.71e-01 6.72e+03  -9.0 1.14e+02  -2.1 1.00e-08 5.53e-03f  1
 251r 3.1081490e+03 4.71e-01 6.72e+03  -9.0 3.51e+00  -0.8 1.79e-02 1.35e-05f  1
 252r 3.1081490e+03 4.71e-01 6.71e+03  -9.0 1.59e+01  -1.3 8.79e-07 1.18e-03f  1
In iteration 252, 1 Slack too small, adjusting variable bound
 253r 3.1081490e+03 4.71e-01 6.71e+03  -9.0 4.01e+00  -0.9 5.64e-02 1.77e-07f  1
 254r 3.1081490e+03 4.71e-01 6.23e+03  -9.0 1.50e+01  -1.3 3.43e-05 7.22e-02f  1
In iteration 254, 1 Slack too small, adjusting variable bound
 255r 3.1081490e+03 4.71e-01 6.23e+03  -9.0 4.75e+00  -0.9 7.92e-02 4.91e-07f  1
 256r 3.1081490e+03 4.71e-01 5.50e+03  -9.0 1.37e+01  -1.4 3.56e-10 1.17e-01f  1
 257r 3.1081490e+03 4.71e-01 5.50e+03  -9.0 4.58e+01  -1.9 0.00e+00 8.45e-16R 21
 258r 3.1081490e+03 4.71e-01 5.50e+03  -9.0 2.11e+02  -2.4 1.44e-05 2.33e-12f  9
 259r 3.1081490e+03 4.71e-01 5.50e+03  -9.0 9.71e+00  -1.0 3.42e-01 7.12e-06f  1
iter    objective    inf_pr   inf_du lg(mu)  ||d||  lg(rg) alpha_du alpha_pr  ls
 260r 3.1081490e+03 4.71e-01 5.14e+03  -9.0 1.76e+01  -1.5 9.91e-05 6.65e-02f  1
 261r 3.1081490e+03 4.71e-01 5.14e+03  -9.0 9.90e+00  -1.1 1.40e-01 5.33e-11h  9
 262r 3.1081490e+03 4.71e-01 5.07e+03  -9.0 6.98e-01  -0.6 6.42e-02 1.37e-02f  1
 263r 3.1081490e+03 4.71e-01 3.74e+03  -9.0 2.01e+00  -1.1 1.81e-07 2.62e-01f  1
 264r 3.1081490e+03 4.71e-01 3.63e+03  -9.0 7.90e-01  -0.7 1.31e-01 2.98e-02f  1
 265r 3.1081490e+03 4.71e-01 3.07e+03  -9.0 4.35e+00  -1.2 7.44e-10 1.52e-01f  1
 266r 3.1081490e+03 4.71e-01 3.07e+03  -9.0 1.09e+00  -0.8 1.70e-02 1.98e-12h  9
 267r 3.1081490e+03 4.71e-01 3.05e+03  -9.0 2.39e-01  -0.3 3.37e-01 8.43e-03f  1
 268r 3.1081490e+03 4.71e-01 2.63e+03  -9.0 1.33e+00  -0.8 8.76e-10 1.38e-01f  1
 269r 3.1081490e+03 4.71e-01 2.55e+03  -9.0 3.90e+00  -1.3 1.90e-01 2.87e-02f  1
iter    objective    inf_pr   inf_du lg(mu)  ||d||  lg(rg) alpha_du alpha_pr  ls
 270r 3.1081490e+03 4.71e-01 2.19e+03  -9.0 8.76e-01  -1.8 6.07e-01 1.41e-01f  1
 271r 3.1081490e+03 4.71e-01 8.54e+02  -9.0 2.63e+00  -2.2 2.35e-02 6.10e-01f  1
 272r 3.1081490e+03 4.71e-01 8.17e+02  -9.0 1.05e+01  -2.7 2.16e-02 4.27e-02f  1
 273r 3.1081490e+03 4.71e-01 2.26e+02  -9.0 2.36e+01  -3.2 9.47e-01 7.92e-01f  1
 274r 3.1081489e+03 4.71e-01 1.76e+01  -9.0 7.09e+01  -3.7 1.00e+00 9.41e-01f  1
 275r 3.1081487e+03 4.71e-01 1.53e-02  -9.0 2.12e+02  -4.1 1.00e+00 1.00e+00f  1
 276r 3.1081484e+03 4.71e-01 7.27e-01  -9.0 6.29e+02  -4.6 1.00e+00 4.23e-01f  1
 277r 3.1081484e+03 4.71e-01 1.22e+03  -9.0 7.45e+02  -5.1 1.27e-01 2.27e-04f  1
 278r 3.1081465e+03 4.71e-01 2.08e+02  -9.0 2.37e+03  -5.6 2.67e-10 1.88e-01f  1
 279r 3.1081465e+03 4.71e-01 1.34e+03  -9.0 9.02e+03  -6.1 1.98e-01 6.03e-14h 13
iter    objective    inf_pr   inf_du lg(mu)  ||d||  lg(rg) alpha_du alpha_pr  ls
 280r 3.1081464e+03 4.71e-01 2.00e+03  -9.0 9.61e+04  -6.5 1.05e-01 5.01e-04f  1
 281r 3.1081452e+03 4.71e-01 1.84e+03  -9.0 1.07e+04  -6.1 2.32e-10 3.32e-02f  1
 282r 3.1081452e+03 4.71e-01 1.84e+03  -9.0 2.53e+04  -6.6 6.51e-02 4.64e-08f  1
 283r 3.1081441e+03 4.71e-01 1.79e+03  -9.0 6.50e+03  -6.2 2.19e-02 3.11e-02f  1
 284r 3.1081441e+03 4.71e-01 1.79e+03  -9.0 8.25e+03  -6.6 2.24e-01 6.99e-07f  1
 285r 3.1081307e+03 4.71e-01 1.73e+03  -9.0 1.64e+04  -7.1 1.48e-02 3.18e-02f  1
 286r 3.1081307e+03 4.71e-01 1.73e+03  -9.0 2.58e+04  -7.6 0.00e+00 7.41e-15R 21
 287r 3.1081307e+03 4.71e-01 2.00e+03  -9.0 9.41e+04  -8.1 6.23e-01 2.65e-11f  9
 288r 3.1079671e+03 4.71e-01 1.97e+03  -9.0 8.07e+05  -8.5 1.88e-09 9.56e-03f  1
 289r 3.1079671e+03 4.71e-01 1.97e+03  -9.0 8.30e+04  -8.1 0.00e+00 3.24e-15R 21
iter    objective    inf_pr   inf_du lg(mu)  ||d||  lg(rg) alpha_du alpha_pr  ls
 290r 3.1079671e+03 4.71e-01 1.97e+03  -9.0 5.01e+05  -8.6 9.10e-01 3.53e-09f  1
 291r 3.1079637e+03 4.71e-01 1.97e+03  -9.0 8.71e+04  -8.2 6.35e-03 9.07e-04f  1
 292r 3.1079576e+03 4.71e-01 1.97e+03  -9.0 2.51e+05  -8.6 5.67e-02 7.28e-04f  1
 293r 3.1079155e+03 4.71e-01 1.69e+03  -9.0 6.91e+04  -8.2 1.00e+00 1.13e-02f  1
 294r 3.1077542e+03 4.71e-01 1.84e+03  -9.0 1.55e+05  -8.7 1.00e+00 1.23e-02f  1
 295r 3.1075038e+03 4.71e-01 1.21e+03  -9.0 7.14e+05  -9.2 1.00e+00 5.22e-03f  1
 296r 3.1067567e+03 4.71e-01 9.92e+02  -9.0 1.80e+05  -8.7 1.00e+00 5.93e-02f  1
 297r 3.1067440e+03 4.71e-01 1.01e+03  -9.0 3.59e+05  -9.2 3.56e-01 3.69e-04f  1
 298r 3.1055689e+03 4.71e-01 1.21e+03  -9.0 1.79e+06  -9.7 1.00e+00 9.32e-03f  1
 299r 3.1051907e+03 4.71e-01 1.22e+03  -9.0 5.99e+06 -10.2 3.98e-02 1.15e-03f  1
iter    objective    inf_pr   inf_du lg(mu)  ||d||  lg(rg) alpha_du alpha_pr  ls
 300r 3.1043285e+03 4.71e-01 1.26e+03  -9.0 1.03e+06  -9.7 1.00e+00 9.75e-03f  1
 301r 3.1039090e+03 4.71e-01 1.27e+03  -9.0 2.97e+06 -10.2 8.91e-02 2.14e-03f  1
 302r 3.1031760e+03 4.71e-01 1.81e+03  -9.0 8.37e+05  -9.8 8.97e-01 8.74e-03f  1
 303r 3.1021718e+03 4.71e-01 1.99e+03  -9.0 2.61e+06 -10.3 8.31e-01 4.41e-03f  1
 304r 3.0941330e+03 4.71e-01 1.99e+03  -9.0 9.58e+07 -10.8 9.94e-09 9.31e-04f  1
 305r 3.0941330e+03 4.71e-01 1.99e+03  -9.0 4.98e+06    -  0.00e+00 1.34e-15R 17
 306r 3.0941330e+03 4.71e-01 1.99e+03  -9.0 5.01e+06    -  1.30e-01 3.40e-13f  9
 307r 3.1633002e+03 4.71e-01 1.96e+03  -9.0 5.17e+06    -  3.06e-06 1.39e-02f  1
 308r 3.1639789e+03 4.71e-01 2.00e+03  -9.0 1.53e+06    -  9.26e-01 4.42e-04f  1
 309r 3.4123932e+03 4.72e-01 1.67e+03  -9.0 1.52e+06    -  1.26e-08 1.52e-01f  1
iter    objective    inf_pr   inf_du lg(mu)  ||d||  lg(rg) alpha_du alpha_pr  ls
 310r 3.4781121e+03 4.72e-01 1.61e+03  -9.0 1.64e+06    -  1.00e+00 3.67e-02f  1
 311r 3.7265798e+03 4.71e-01 1.40e+03  -9.0 1.69e+06    -  1.00e+00 1.27e-01f  1
 312r 3.7265799e+03 4.71e-01 1.40e+03  -9.0 1.77e+06    -  1.00e+00 7.68e-08h  1
 313r 3.7466299e+03 4.71e-01 1.35e+03  -9.0 1.77e+06    -  1.00e+00 3.47e-02f  1
 314r 3.7466304e+03 4.71e-01 1.63e+03  -9.0 8.19e+05    -  1.00e+00 4.49e-07h  1
 315r 3.8911183e+03 4.71e-01 1.42e+03  -9.0 8.19e+05    -  1.00e+00 1.28e-01f  1
 316r 3.8911208e+03 4.71e-01 1.17e+03  -9.0 3.48e+05    -  1.00e+00 6.72e-06h  1
 317r 3.9836738e+03 4.71e-01 8.89e+02  -9.0 3.48e+05    -  1.00e+00 2.43e-01f  1
 318r 3.9836842e+03 4.71e-01 7.22e+02  -9.0 1.16e+05    -  1.00e+00 8.90e-05h  1
 319r 4.1017129e+03 2.72e+00 7.31e+00  -9.0 1.16e+05    -  1.00e+00 1.00e+00f  1
iter    objective    inf_pr   inf_du lg(mu)  ||d||  lg(rg) alpha_du alpha_pr  ls
 320r 3.8776048e+03 1.19e+00 7.59e+01  -9.0 2.40e+05    -  1.00e+00 8.44e-01f  1
 321r 3.8987637e+03 1.09e+00 4.42e+02  -9.0 3.04e+05    -  1.00e+00 1.03e-01h  4
 322r 4.0069002e+03 5.16e-01 1.61e+01  -9.0 9.88e+04    -  1.00e+00 9.82e-01h  1
 323r 4.0121081e+03 4.85e-01 1.67e+02  -9.0 2.48e+05    -  1.00e+00 6.08e-02h  5
 324r 4.3378434e+03 4.70e-01 1.29e+02  -9.0 8.16e+04    -  8.39e-01 9.28e-01H  1
 325r 4.3378434e+03 4.70e-01 5.62e+02  -9.0 5.01e+05    -  0.00e+00 2.28e-12R  9
 326r 4.3378434e+03 4.70e-01 8.11e+02  -9.0 5.00e+05    -  1.00e+00 2.27e-12f  9
 327r 4.3282060e+03 4.70e-01 8.28e+02  -9.0 5.19e+05    -  1.00e+00 1.33e-02f  6
 328r 4.3257943e+03 4.70e-01 8.30e+02  -9.0 5.06e+05    -  1.00e+00 3.43e-03f  8
 329r 4.3233832e+03 4.70e-01 8.28e+02  -9.0 5.03e+05    -  1.00e+00 3.46e-03f  8
iter    objective    inf_pr   inf_du lg(mu)  ||d||  lg(rg) alpha_du alpha_pr  ls
 330r 4.3209726e+03 4.70e-01 8.26e+02  -9.0 5.00e+05    -  1.00e+00 3.49e-03f  8
 331r 4.3185627e+03 4.70e-01 8.25e+02  -9.0 4.97e+05    -  1.00e+00 3.51e-03f  8
 332r 4.0260485e+03 4.79e-01 4.52e+02  -9.0 4.93e+05    -  1.00e+00 4.53e-01f  1
 333r 4.0809164e+03 4.57e+00 3.64e+01  -9.0 2.28e+05    -  1.00e+00 7.99e-01f  1
 334r 3.9135266e+03 1.44e+00 1.59e+02  -9.0 2.27e+05    -  1.00e+00 6.85e-01f  1
 335r 3.8689855e+03 1.23e+00 6.60e+00  -9.0 8.03e+04    -  1.00e+00 9.81e-01f  1
 336r 3.8945787e+03 1.08e+00 5.64e+02  -9.0 3.33e+05    -  1.00e+00 1.21e-01h  4
 337r 3.9005831e+03 1.05e+00 5.10e+02  -9.0 2.59e+05    -  1.00e+00 3.12e-02h  6
 338r 4.1116399e+03 4.70e-01 7.07e+01  -9.0 1.97e+05    -  1.00e+00 9.99e-01h  1
 339r 4.1042711e+03 4.70e-01 2.79e-01  -9.0 1.04e+04    -  1.00e+00 1.00e+00f  1
iter    objective    inf_pr   inf_du lg(mu)  ||d||  lg(rg) alpha_du alpha_pr  ls
 340r 4.1043074e+03 4.70e-01 7.00e-02  -9.0 1.55e+02    -  1.00e+00 1.00e+00h  1
 341r 4.1043017e+03 4.70e-01 7.92e-03  -9.0 7.19e+01    -  1.00e+00 1.00e+00h  1
 342r 4.1043011e+03 4.70e-01 1.33e-04  -9.0 1.03e+01    -  1.00e+00 1.00e+00h  1

Number of Iterations....: 342

                                   (scaled)                 (unscaled)
Objective...............:   4.1043010837027205e+03    4.1043010837027205e+03
Dual infeasibility......:   3.1855206103929043e-04    3.1855206103929043e-04
Constraint violation....:   4.7014633111696957e-01    4.7014633111696957e-01
Complementarity.........:   9.0909091074620256e-10    9.0909091074620256e-10
Overall NLP error.......:   4.7014633111696957e-01    4.7014633111696957e-01


Number of objective function evaluations             = 870
Number of objective gradient evaluations             = 54
Number of equality constraint evaluations            = 879
Number of inequality constraint evaluations          = 0
Number of equality constraint Jacobian evaluations   = 357
Number of inequality constraint Jacobian evaluations = 0
Number of Lagrangian Hessian evaluations             = 343
Total CPU secs in IPOPT (w/o function evaluations)   =      0.678
Total CPU secs in NLP function evaluations           =     10.099

EXIT: Converged to a point of local infeasibility. Problem may be infeasible.
